112 159 325 383 476
69 362 760 445 808
727 636 873 1013 984
945 864 1032 1137 1022
37 14 0 63 84
777 249 148 1159 301
518 196 594 747 954
678 506 14 728 772
165 945 675 255 996
873 727 812 966 1031
507 79 1011 173 520
154 168 58 209 255
241 552 469 586 739
579 812 374 868 1121
63 301 626 675 362
412 157 1117 514 586
0 58 45 84 173
326 562 963 1058 651
766 437 543 779 880
141 242 249 331 431
